<?xml version = "1.0" encoding="UTF-8" standalone="yes"?>
<CPLEXSolution version="1.2">
 <header
   problemName="IloCplex"
   solutionName="incumbent"
   solutionIndex="-1"
   objectiveValue="8219.0591755807836"
   solutionTypeValue="3"
   solutionTypeString="primal"
   solutionStatusValue="101"
   solutionStatusString="integer optimal solution"
   solutionMethodString="mip"
   primalFeasible="1"
   dualFeasible="1"
   MIPNodes="0"
   MIPIterations="12"
   writeLevel="1"/>
 <quality
   epInt="1.0000000000000001e-05"
   epRHS="9.9999999999999995e-07"
   maxIntInfeas="0"
   maxPrimalInfeas="0"
   maxX="1"
   maxSlack="0"/>
 <linearConstraints>
  <constraint name="NodeDegree(0)" index="0" slack="0"/>
  <constraint name="NodeDegree(1)" index="1" slack="0"/>
  <constraint name="NodeDegree(2)" index="2" slack="0"/>
  <constraint name="NodeDegree(3)" index="3" slack="0"/>
  <constraint name="NodeDegree(4)" index="4" slack="0"/>
  <constraint name="NodeDegree(5)" index="5" slack="0"/>
  <constraint name="NodeDegree(6)" index="6" slack="0"/>
  <constraint name="NodeDegree(7)" index="7" slack="0"/>
  <constraint name="NodeDegree(8)" index="8" slack="0"/>
 </linearConstraints>
 <variables>
  <variable name="x[0]" index="0" value="-0"/>
  <variable name="x[1]" index="1" value="-0"/>
  <variable name="x[2]" index="2" value="-0"/>
  <variable name="x[3]" index="3" value="-0"/>
  <variable name="x[4]" index="4" value="-0"/>
  <variable name="x[5]" index="5" value="1"/>
  <variable name="x[6]" index="6" value="0"/>
  <variable name="x[7]" index="7" value="1"/>
  <variable name="x[8]" index="8" value="-0"/>
  <variable name="x[9]" index="9" value="-0"/>
  <variable name="x[10]" index="10" value="1"/>
  <variable name="x[11]" index="11" value="-0"/>
  <variable name="x[12]" index="12" value="-0"/>
  <variable name="x[13]" index="13" value="1"/>
  <variable name="x[14]" index="14" value="-0"/>
  <variable name="x[15]" index="15" value="1"/>
  <variable name="x[16]" index="16" value="1"/>
  <variable name="x[17]" index="17" value="0"/>
  <variable name="x[18]" index="18" value="-0"/>
  <variable name="x[19]" index="19" value="-0"/>
  <variable name="x[20]" index="20" value="-0"/>
  <variable name="x[21]" index="21" value="-0"/>
  <variable name="x[22]" index="22" value="1"/>
  <variable name="x[23]" index="23" value="-0"/>
  <variable name="x[24]" index="24" value="-0"/>
  <variable name="x[25]" index="25" value="-0"/>
  <variable name="x[26]" index="26" value="0"/>
  <variable name="x[27]" index="27" value="-0"/>
  <variable name="x[28]" index="28" value="0"/>
  <variable name="x[29]" index="29" value="-0"/>
  <variable name="x[30]" index="30" value="1"/>
  <variable name="x[31]" index="31" value="-0"/>
  <variable name="x[32]" index="32" value="-0"/>
  <variable name="x[33]" index="33" value="-0"/>
  <variable name="x[34]" index="34" value="0"/>
  <variable name="x[35]" index="35" value="1"/>
 </variables>
 <objectiveValues>
  <objective index="0" name="obj1" value="8219.0591755807836"/>
 </objectiveValues>
</CPLEXSolution>
